n_res = 4;
rc = [ 13, 15, 15, 14 ];
n_tasks = 30;
d = [ 9, 10, 7, 2, 9, 5, 8, 8, 8, 7, 8, 2, 1, 5, 9, 9, 1, 4, 9, 10, 7, 9, 6, 5, 4, 3, 2, 8, 5, 5 ];
rr = [| 0, 8, 0, 4, 6, 9, 5, 3, 0, 5, 7, 0, 2, 0, 4, 2, 1, 0, 5, 7, 6, 6, 6, 0, 6, 6, 5, 10, 0, 5
      | 10, 1, 1, 3, 9, 6, 5, 9, 8, 0, 0, 8, 5, 0, 7, 7, 4, 2, 4, 8, 0, 4, 6, 0, 7, 5, 0, 8, 8, 10
      | 5, 0, 9, 5, 7, 9, 7, 0, 3, 7, 7, 0, 0, 6, 0, 6, 2, 3, 9, 0, 5, 0, 0, 2, 7, 0, 8, 1, 10, 0
      | 3, 3, 8, 0, 7, 0, 3, 3, 2, 0, 8, 8, 10, 4, 4, 6, 4, 10, 7, 2, 9, 0, 7, 1, 8, 8, 0, 5, 10, 8 |];
suc = [ { 2 }, 
        { 3 }, 
        { 4 }, 
        { 5 }, 
        { 6 }, 
        { 7 }, 
        { 8 }, 
        { 9 }, 
        { 10 }, 
        { 11 }, 
        { 12 }, 
        { 13 }, 
        { 14 }, 
        { 15 }, 
        { 16 }, 
        { 17 }, 
        { 18 }, 
        { 19 }, 
        { 20 }, 
        { 21 }, 
        { 22 }, 
        { 23 }, 
        { 24 }, 
        { 25 }, 
        { 26 }, 
        { 27 }, 
        { 28 }, 
        { 29 }, 
        { 30 }, 
        {  }]; 
